(set-option :produce-models true)
(set-logic QF_UF)
(declare-fun p42() Bool)
(declare-fun p72() Bool)
(declare-fun p26() Bool)
(declare-fun p45() Bool)
(declare-fun p28() Bool)
(declare-fun p65() Bool)
(declare-fun p76() Bool)
(declare-fun p46() Bool)
(declare-fun p62() Bool)
(declare-fun p56() Bool)
(declare-fun p16() Bool)
(declare-fun p73() Bool)
(declare-fun p70() Bool)
(declare-fun p8() Bool)
(declare-fun p55() Bool)
(declare-fun p35() Bool)
(declare-fun p7() Bool)
(declare-fun p53() Bool)
(declare-fun p38() Bool)
(declare-fun p37() Bool)
(declare-fun p66() Bool)
(declare-fun p67() Bool)
(declare-fun p63() Bool)
(declare-fun p1() Bool)
(declare-fun p9() Bool)
(declare-fun p47() Bool)
(declare-fun p4() Bool)
(declare-fun p24() Bool)
(declare-fun p44() Bool)
(declare-fun p64() Bool)
(declare-fun p36() Bool)
(declare-fun p31() Bool)
(declare-fun p69() Bool)
(declare-fun p21() Bool)
(declare-fun p68() Bool)
(declare-fun p61() Bool)
(declare-fun p25() Bool)
(declare-fun p40() Bool)
(declare-fun p43() Bool)
(declare-fun p75() Bool)
(declare-fun p34() Bool)
(declare-fun p49() Bool)
(declare-fun p54() Bool)
(declare-fun p52() Bool)
(declare-fun p2() Bool)
(declare-fun p12() Bool)
(declare-fun p79() Bool)
(declare-fun p18() Bool)
(declare-fun p13() Bool)
(declare-fun p32() Bool)
(declare-fun p48() Bool)
(declare-fun p51() Bool)
(declare-fun p19() Bool)
(declare-fun p10() Bool)
(declare-fun p71() Bool)
(declare-fun p11() Bool)
(declare-fun p74() Bool)
(declare-fun p33() Bool)
(declare-fun p20() Bool)
(declare-fun p27() Bool)
(declare-fun p58() Bool)
(declare-fun p17() Bool)
(declare-fun p6() Bool)
(declare-fun p41() Bool)
(declare-fun p50() Bool)
(declare-fun p5() Bool)
(declare-fun p60() Bool)
(declare-fun p39() Bool)
(declare-fun p3() Bool)
(declare-fun p0() Bool)
(declare-fun p57() Bool)
(declare-fun p59() Bool)
(declare-fun p78() Bool)
(declare-fun p15() Bool)
(declare-fun p14() Bool)
(declare-fun p77() Bool)
(declare-fun p29() Bool)
(declare-fun p22() Bool)
(declare-fun p23() Bool)
(declare-fun p30() Bool)
(assert
(and (or (not p42) p72 (not p26)) (or (not p45) (not p28) p65) (or (not p76) p46 p62) (or (not p56) p16 p73) (or (not p70) (not p8) p55) (or (not p35) p76 (not p7)) (or p76 p28 p53) (or (not p38) p46 p65) (or (not p37) (not p37) p53) (or p46 p66 p45) (or p67 (not p63) p1) (or p9 (not p47) (not p7)) (or p4 (not p24) (not p44)) (or (not p64) p36 p31) (or p69 (not p67) p21) (or p4 (not p68) (not p61)) (or (not p46) p42 (not p68)) (or p25 (not p40) p43) (or (not p44) p75 (not p46)) (or (not p34) p49 (not p54)) (or (not p52) (not p49) p76) (or p24 p2 (not p42)) (or p53 (not p21) (not p12)) (or (not p79) (not p18) p68) (or (not p47) (not p13) p32) (or p49 p79 p54) (or (not p48) p36 p68) (or p44 p51 (not p19)) (or (not p10) p71 p11) (or p8 p43 (not p16)) (or p56 p49 p26) (or p70 p67 p74) (or p4 (not p33) p52) (or (not p34) p20 p38) (or (not p10) (not p53) (not p68)) (or p27 (not p13) (not p70)) (or p58 (not p49) (not p12)) (or (not p43) (not p17) p6) (or (not p41) p42 p50) (or (not p50) p11 p10) (or (not p27) p48 (not p44)) (or p32 (not p26) (not p27)) (or p5 (not p7) p50) (or (not p62) p64 p79) (or p60 p39 p36) (or (not p19) (not p60) p26) (or p21 p1 p72) (or (not p38) (not p42) (not p75)) (or (not p3) p33 (not p56)) (or p45 (not p1) (not p0)) (or (not p18) (not p70) p19) (or (not p76) p57 (not p57)) (or p72 p4 p61) (or p59 p50 p19) (or p75 p75 p51) (or (not p17) (not p24) (not p78)) (or (not p15) p17 p9) (or p65 (not p66) (not p73)) (or (not p79) (not p63) p79) (or (not p73) (not p14) p59) (or (not p57) (not p52) p31) (or p60 (not p17) (not p34)) (or p60 p64 (not p43)) (or p7 p40 (not p43)) (or p66 (not p77) (not p33)) (or p64 p17 (not p54)) (or (not p31) p35 (not p63)) (or p0 p13 (not p19)) (or p29 p21 (not p24)) (or (not p22) (not p64) (not p68)) (or (not p14) p25 p27) (or p60 (not p6) p8) (or p35 p21 (not p54)) (or p40 (not p43) (not p79)) (or p23 p3 p62) (or p71 p16 (not p25)) (or p18 p56 p51) (or (not p51) p19 (not p46)) (or (not p52) (not p15) (not p79)) (or (not p59) (not p73) p66) (or p25 p25 p46) (or (not p0) p54 p71) (or (not p14) (not p20) p59) (or (not p30) p76 (not p51)) (or p73 p32 (not p35)) (or p57 p52 (not p31)) (or (not p38) (not p65) (not p21)) (or p71 (not p17) p35) (or (not p46) p78 (not p34)) (or p75 (not p4) p74) (or (not p43) p76 (not p36)) (or (not p64) p30 (not p27)) (or p37 (not p48) (not p8)) (or (not p37) p75 (not p2)) (or p61 p13 p14) (or (not p17) (not p43) p11) (or (not p15) p56 (not p30)) (or (not p36) (not p1) p31) (or p41 p50 (not p74)) (or (not p34) p61 p59) (or (not p75) p63 p39) (or (not p16) (not p23) p59) (or p54 p69 p44) (or (not p18) p25 (not p55)) (or (not p57) p48 p62) (or p32 p49 (not p55)) (or (not p53) p64 p3) (or p64 (not p43) (not p67)) (or p34 (not p38) p37) (or p78 p68 (not p54)) (or (not p61) (not p58) (not p53)) (or (not p29) (not p43) (not p78)) (or (not p61) p30 (not p50)) (or (not p16) (not p67) p61) (or (not p28) p66 (not p49)) (or p19 p68 (not p77)) (or (not p67) (not p47) (not p27)) (or (not p59) (not p52) p76) (or (not p50) p18 (not p61)) (or p79 (not p42) (not p79)) (or p59 p62 p57) (or (not p12) (not p65) (not p36)) (or p0 (not p55) (not p30)) (or p46 (not p30) p65) (or (not p24) (not p23) (not p50)) (or (not p61) (not p38) (not p29)) (or (not p7) p68 p14) (or (not p15) (not p40) p5) (or (not p24) p30 (not p55)) (or (not p41) (not p78) p76) (or p19 (not p46) (not p67)) (or p13 p8 p11) (or p64 (not p75) (not p22)) (or (not p38) (not p66) (not p55)) (or p46 (not p41) (not p2)) (or (not p46) p34 p52) (or (not p26) (not p12) p18) (or p5 (not p71) p46) (or (not p41) p25 p59) (or p69 p12 p55) (or p40 p13 (not p22)) (or p47 p75 p31) (or p46 (not p28) p70) (or p9 (not p30) p10) (or p26 (not p11) p79) (or (not p70) (not p52) p28) (or (not p57) p76 p67) (or (not p8) (not p78) p22) (or p66 (not p79) (not p64)) (or (not p30) (not p12) p35) (or p77 p42 p7) (or (not p35) p46 p79) (or (not p16) (not p46) p9) (or p0 p5 p51) (or p11 (not p77) (not p59)) (or (not p79) (not p11) (not p55)) (or (not p32) p21 (not p24)) (or (not p2) p45 p63) (or (not p53) p17 p55) (or p76 p27 p38) (or p73 p74 (not p9)) (or p44 (not p22) p73) (or (not p58) (not p4) p4) (or p78 (not p27) p0) (or p24 p6 (not p65)) (or (not p34) p60 (not p22)) (or (not p18) (not p3) (not p8)) (or p62 p43 (not p42)) (or p66 (not p39) p29) (or p50 p27 p0) (or (not p65) (not p75) p67) (or (not p3) (not p0) (not p18)) (or (not p16) p10 (not p32)) (or (not p66) p37 p68) (or p33 p67 p14) (or (not p59) p77 p34) (or p44 p29 (not p67)) (or (not p1) p69 (not p50)) (or p0 (not p13) (not p11)) (or (not p24) (not p70) (not p9)) (or (not p66) (not p76) (not p31)) (or (not p79) p74 p51) (or p65 (not p69) p48) (or p0 p56 p30) (or (not p25) (not p26) (not p62)) (or p66 p44 p35) (or (not p55) p10 p21) (or p29 (not p65) p58) (or p8 p71 (not p71)) (or p14 (not p44) p36) (or p68 (not p0) p22) (or (not p54) p33 (not p73)) (or p12 (not p9) (not p30)) (or p57 p51 p51) (or (not p56) p16 p58) (or p64 p18 p68) (or p47 (not p27) (not p19)) (or p34 p17 p17) (or (not p30) (not p62) p58) (or (not p44) (not p18) p22) (or (not p44) (not p43) p11) (or p20 (not p40) (not p25)) (or p56 (not p65) (not p6)) (or (not p6) p51 p0) (or (not p70) (not p40) (not p2)) (or p35 p61 p66) (or p51 (not p25) p42) (or p30 p36 (not p19)) (or (not p16) p48 p9) (or (not p11) p66 p26) (or p61 p66 (not p38)) (or (not p63) p71 p2) (or (not p79) p48 (not p51)) (or (not p72) (not p26) p70) (or (not p11) p63 (not p66)) (or (not p18) (not p54) p73) (or p35 (not p13) (not p51)) (or (not p47) p65 (not p64)) (or p16 p41 (not p25)) (or (not p7) (not p60) (not p22)) (or (not p27) (not p72) (not p42)) (or p31 (not p64) p7) (or p0 (not p29) (not p69)) (or (not p23) p52 p10) (or p48 (not p71) (not p20)) (or (not p60) p50 p36) (or p43 (not p45) (not p65)) (or p0 p9 (not p68)) (or p33 (not p70) p56) (or p32 p30 p23) (or p77 p38 (not p36)) (or (not p69) p66 (not p19)) (or p21 p53 (not p71)) (or p71 p57 (not p54)) (or (not p27) p56 (not p34)) (or (not p41) (not p16) (not p29)) (or (not p22) p19 (not p70)) (or (not p15) (not p47) p21) (or (not p64) (not p60) p4) (or p16 (not p31) p8) (or p50 (not p0) (not p61)) (or p1 p70 (not p64)) (or p45 (not p39) p32) (or (not p10) p30 (not p12)) (or p69 (not p9) (not p73)) (or p23 (not p55) (not p25)) (or p55 p52 p44) (or p69 (not p4) (not p27)) (or p73 p53 p22) (or (not p35) p18 p55) (or p67 (not p38) (not p67)) (or (not p70) p39 p71) (or p55 (not p4) p13) (or (not p48) (not p4) (not p52)) (or (not p69) p5 p18) (or (not p28) (not p34) p38) (or p47 p64 (not p69)) (or p48 (not p47) (not p42)) (or p46 (not p23) p69) (or (not p73) p27 (not p28)) (or (not p42) (not p52) (not p14)) (or p74 (not p62) (not p66)) (or (not p44) (not p39) (not p35)) (or (not p21) (not p24) p13) (or (not p40) p49 (not p47)) (or p23 (not p44) p49) (or p36 p27 p1) (or p24 p68 p53) (or p77 p55 p56) (or p16 (not p72) p57) (or p35 (not p71) p43) (or p12 p11 p78) (or (not p29) p73 p27) (or (not p62) (not p79) p48) (or p59 p38 p4) (or (not p52) (not p22) p37) (or (not p48) (not p34) p45) (or p7 p45 p8) (or p65 (not p48) (not p39)) (or p37 (not p76) p1) (or (not p72) (not p60) p2) (or (not p25) (not p73) p34) (or p27 (not p78) p79) (or p40 p15 (not p57)) (or p71 p72 p62) (or (not p45) (not p5) p9) (or p30 (not p18) p57) (or (not p65) (not p38) (not p40)) (or (not p69) (not p63) p15) (or (not p2) (not p70) p48) (or (not p46) (not p43) p1) (or p7 (not p21) (not p56)) (or (not p70) (not p47) (not p30)) (or (not p59) (not p78) p63) (or (not p7) (not p13) p2) (or p8 (not p78) p1) (or (not p50) p26 p78) (or (not p47) p59 (not p24)) (or p17 (not p39) p48) (or (not p32) p43 (not p4)) (or p69 p1 p21) (or p20 p51 p73) (or p74 p37 (not p72)) (or (not p45) p66 (not p16)) (or p78 (not p38) p47) (or (not p31) p71 (not p6)) (or (not p35) p14 p0) (or (not p58) (not p44) p39) (or p44 p7 p42) (or p4 (not p25) p78) (or p52 (not p79) (not p1)) (or p30 (not p11) (not p22)) (or p76 (not p79) p67) (or p62 (not p51) p47) (or p4 (not p13) (not p24)) (or (not p8) (not p47) p23) (or p23 p47 p54) (or (not p51) p78 p16) (or (not p72) p17 (not p36)) (or p34 p60 p77) (or (not p31) p1 (not p12)) (or p29 (not p3) (not p49)) (or (not p6) p21 (not p50)) (or p7 (not p18) p52) (or (not p1) p37 (not p39)) (or p16 p9 p58) (or p42 (not p4) (not p77)) (or (not p26) (not p34) (not p42)) (or p30 (not p77) (not p64)) (or p11 p51 p70) (or p62 (not p24) p27) (or p28 (not p48) p5) (or p27 p28 p9) (or p70 (not p77) (not p66)) (or (not p47) (not p52) (not p73)) (or p17 p2 (not p26)) (or p32 (not p4) p69))
)
(check-sat)
(get-model)
